
Gurobi 9.5.0 (linux64) logging started Fri Nov 24 17:11:37 2023

Set parameter LogFile to value "/lustre1/scratch/348/vsc34888/JointResearch/05.Models/06.Benchmarking/E.Representative_days_based_on_Line_Benefits_OptModel/RTS24_mod1_ByStages_nc20/openStarNet_RTS24_mod1_ByStages_nc20.log"
Set parameter Method to value 2
Set parameter MIPFocus to value 1
Set parameter Presolve to value 2
Set parameter RINS to value 100
Set parameter MIPGap to value 0.01
Set parameter Threads to value 36
Set parameter TimeLimit to value 259200
Set parameter IterationLimit to value 760000000
Gurobi Optimizer version 9.5.0 build v9.5.0rc5 (linux64)
Thread count: 36 physical cores, 36 logical processors, using up to 36 threads
Optimize a model with 7458 rows, 5059 columns and 20341 nonzeros
Model fingerprint: 0xc65ff5fc
Variable types: 5038 continuous, 21 integer (21 binary)
Coefficient statistics:
  Matrix range     [1e-03, 2e+03]
  Objective range  [1e+00, 1e+00]
  Bounds range     [6e-05, 2e+00]
  RHS range        [6e-05, 2e+00]
Presolve removed 4443 rows and 2558 columns
Presolve time: 0.03s
Presolved: 3015 rows, 2501 columns, 10891 nonzeros
Variable types: 2480 continuous, 21 integer (21 binary)
Found heuristic solution: objective 63.3542280
Root relaxation presolve removed 5 rows and 5 columns
Root relaxation presolved: 3010 rows, 2496 columns, 10881 nonzeros

Root barrier log...

Ordering time: 0.04s

Barrier statistics:
 AA' NZ     : 8.901e+04
 Factor NZ  : 4.117e+05 (roughly 6 MB of memory)
 Factor Ops : 8.894e+07 (less than 1 second per iteration)
 Threads    : 36

                  Objective                Residual
Iter       Primal          Dual         Primal    Dual     Compl     Time
   0   2.71598135e+06 -4.38172070e+07  2.19e+01 5.17e+02  5.32e+04     0s
   1   8.48130445e+05 -2.42460535e+07  6.84e+00 1.98e-10  1.53e+04     0s
   2   1.00058176e+05 -1.40822232e+07  8.46e-01 1.00e-10  3.16e+03     0s
   3   2.40400832e+04 -2.66229905e+06  1.81e-01 1.74e-10  4.90e+02     0s
   4   7.39334456e+03 -4.05296694e+05  3.60e-03 4.33e-11  5.92e+01     0s
   5   4.81736492e+03 -1.12172297e+05  3.22e-05 3.58e-11  1.66e+01     0s
   6   1.32008806e+03 -1.29667394e+04  7.60e-13 6.74e-12  2.03e+00     0s
   7   4.08652865e+02 -2.42862955e+03  6.05e-13 3.64e-12  4.02e-01     0s
   8   2.15865013e+02 -7.82408174e+02  2.35e-13 1.82e-12  1.41e-01     0s
   9   1.44987073e+02 -2.41525225e+02  1.60e-13 1.82e-12  5.48e-02     0s
  10   8.00461400e+01 -4.75598502e+01  1.46e-13 3.64e-12  1.81e-02     0s
  11   5.17329858e+01  4.43317930e+00  2.19e-13 1.82e-12  6.70e-03     0s
  12   4.18462816e+01  2.70248316e+01  5.57e-13 5.46e-12  2.10e-03     0s
  13   3.74466381e+01  2.90088758e+01  1.43e-12 3.64e-12  1.20e-03     0s
  14   3.53629387e+01  3.08617074e+01  8.71e-13 3.64e-12  6.38e-04     0s
  15   3.39167989e+01  3.18024996e+01  4.83e-12 3.64e-12  3.00e-04     0s
  16   3.34186061e+01  3.22037018e+01  1.19e-11 1.82e-12  1.72e-04     0s
  17   3.29077581e+01  3.23746427e+01  4.14e-11 3.64e-12  7.56e-05     0s
  18   3.25253358e+01  3.24730905e+01  1.62e-10 1.82e-12  7.41e-06     0s
  19   3.24935928e+01  3.24835405e+01  1.18e-10 1.82e-12  1.42e-06     0s
  20   3.24907259e+01  3.24845022e+01  1.13e-10 3.64e-12  8.82e-07     0s
  21   3.24862002e+01  3.24851278e+01  1.05e-10 1.82e-12  1.52e-07     0s
  22   3.24853781e+01  3.24852294e+01  6.02e-10 1.82e-12  2.11e-08     0s
  23   3.24852456e+01  3.24852450e+01  2.34e-10 1.82e-12  9.48e-11     0s
  24   3.24852455e+01  3.24852455e+01  2.67e-11 1.82e-12  1.29e-12     0s

Barrier solved model in 24 iterations and 0.39 seconds (0.15 work units)
Optimal objective 3.24852455e+01


Root relaxation: objective 3.248525e+01, 423 iterations, 0.35 seconds (0.10 work units)

    Nodes    |    Current Node    |     Objective Bounds      |     Work
 Expl Unexpl |  Obj  Depth IntInf | Incumbent    BestBd   Gap | It/Node Time

     0     0   32.48525    0   16   63.35423   32.48525  48.7%     -    0s
H    0     0                      56.1525702   32.66112  41.8%     -    0s
     0     0   32.66112    0    7   56.15257   32.66112  41.8%     -    0s
     0     0   32.68055    0    7   56.15257   32.68055  41.8%     -    0s
     0     0   32.87398    0    8   56.15257   32.87398  41.5%     -    0s
H    0     0                      53.8016397   33.09391  38.5%     -    0s
     0     0   33.09391    0    8   53.80164   33.09391  38.5%     -    0s
     0     0   33.25178    0    7   53.80164   33.25178  38.2%     -    0s
     0     0   33.26976    0    7   53.80164   33.26976  38.2%     -    0s
H    0     0                      51.6236632   33.35708  35.4%     -    0s
     0     0   33.35708    0    8   51.62366   33.35708  35.4%     -    0s
     0     0   33.80641    0    8   51.62366   33.80641  34.5%     -    0s
     0     0   34.44619    0    8   51.62366   34.44619  33.3%     -    0s
H    0     0                      45.1081308   34.44619  23.6%     -    1s
     0     2   34.44619    0    8   45.10813   34.44619  23.6%     -    1s

Cutting planes:
  Gomory: 1
  Implied bound: 2
  MIR: 61

Explored 965 nodes (51511 simplex iterations) in 3.80 seconds (4.50 work units)
Thread count was 36 (of 36 available processors)

Solution count 5: 45.1081 51.6237 53.8016 ... 63.3542

Optimal solution found (tolerance 1.00e-02)
Best objective 4.510813075510e+01, best bound 4.476858003781e+01, gap 0.7527%

Gurobi 9.5.0 (linux64) logging started Fri Nov 24 17:11:42 2023

Set parameter LogFile to value "/lustre1/scratch/348/vsc34888/JointResearch/05.Models/06.Benchmarking/E.Representative_days_based_on_Line_Benefits_OptModel/RTS24_mod1_ByStages_nc20/openStarNet_RTS24_mod1_ByStages_nc20.log"
Set parameter Method to value 2
Set parameter MIPFocus to value 1
Set parameter Presolve to value 2
Set parameter RINS to value 100
Set parameter MIPGap to value 0.01
Set parameter Threads to value 36
Set parameter TimeLimit to value 259200
Set parameter IterationLimit to value 760000000
No parameters matching 'relax_integrality' found
Gurobi Optimizer version 9.5.0 build v9.5.0rc5 (linux64)
Thread count: 36 physical cores, 36 logical processors, using up to 36 threads
Optimize a model with 7458 rows, 5038 columns and 18556 nonzeros
Model fingerprint: 0xe07bb5be
Coefficient statistics:
  Matrix range     [1e-03, 2e+03]
  Objective range  [1e+00, 1e+00]
  Bounds range     [6e-05, 2e+00]
  RHS range        [6e-05, 1e+01]
Presolve removed 6257 rows and 2881 columns
Presolve time: 0.01s
Presolved: 1201 rows, 2199 columns, 5130 nonzeros

Ordering time: 0.00s

Barrier statistics:
 AA' NZ     : 2.652e+03
 Factor NZ  : 9.843e+03 (roughly 1 MB of memory)
 Factor Ops : 1.182e+05 (less than 1 second per iteration)
 Threads    : 1

                  Objective                Residual
Iter       Primal          Dual         Primal    Dual     Compl     Time
   0   8.71804247e+05 -5.02088861e+07  4.28e+00 1.66e+03  7.31e+04     0s
   1   8.26402610e+04 -2.70791454e+07  3.58e-01 7.42e-11  1.08e+04     0s
   2   4.30593618e+04 -6.51226474e+06  1.31e-01 9.09e-11  2.28e+03     0s
   3   2.46204748e+04 -1.67550016e+06  2.06e-02 6.18e-11  4.88e+02     0s
   4   1.63369556e+04 -1.39412926e+05  2.19e-14 7.56e-11  4.15e+01     0s
   5   4.36814015e+03 -3.13800396e+04  3.16e-14 2.64e-11  9.53e+00     0s
   6   8.28949805e+02 -3.32030599e+03  3.02e-14 1.46e-11  1.11e+00     0s
   7   2.77688284e+02 -6.51893994e+02  2.24e-14 2.91e-11  2.48e-01     0s
   8   1.41016138e+02 -2.76773153e+02  6.66e-15 1.46e-11  1.11e-01     0s
   9   6.61057974e+01 -2.41352698e+01  4.66e-15 3.64e-12  2.41e-02     0s
  10   4.94592500e+01  3.14318375e+01  3.61e-14 3.64e-12  4.81e-03     0s
  11   4.59360185e+01  4.27309246e+01  4.75e-14 1.46e-11  8.55e-04     0s
  12   4.55380004e+01  4.41093205e+01  7.54e-14 1.46e-11  3.81e-04     0s
  13   4.52387371e+01  4.48267392e+01  1.01e-13 1.46e-11  1.10e-04     0s
  14   4.51467373e+01  4.50485632e+01  7.37e-14 2.91e-11  2.62e-05     0s
  15   4.51119468e+01  4.51015256e+01  2.76e-13 1.46e-11  2.78e-06     0s
  16   4.51082224e+01  4.51077580e+01  6.26e-12 7.28e-12  1.24e-07     0s
  17   4.51081316e+01  4.51081291e+01  1.37e-12 1.46e-11  6.64e-10     0s
  18   4.51081308e+01  4.51081308e+01  1.36e-12 1.46e-11  8.31e-16     0s

Barrier solved model in 18 iterations and 0.02 seconds (0.02 work units)
Optimal objective 4.51081308e+01

Crossover log...

     266 DPushes remaining with DInf 0.0000000e+00                 0s
       0 DPushes remaining with DInf 0.0000000e+00                 0s

      78 PPushes remaining with PInf 0.0000000e+00                 0s
       0 PPushes remaining with PInf 0.0000000e+00                 0s

  Push phase complete: Pinf 0.0000000e+00, Dinf 4.0654683e-13      0s

Iteration    Objective       Primal Inf.    Dual Inf.      Time
      84    4.5108131e+01   0.000000e+00   0.000000e+00      0s

Use crossover to convert LP symmetric solution to basic solution...
Crossover log...

       0 DPushes remaining with DInf 0.0000000e+00                 0s

      59 PPushes remaining with PInf 0.0000000e+00                 0s
       0 PPushes remaining with PInf 0.0000000e+00                 0s

  Push phase complete: Pinf 0.0000000e+00, Dinf 3.8140838e-13      0s

Iteration    Objective       Primal Inf.    Dual Inf.      Time
     151    4.5108131e+01   0.000000e+00   0.000000e+00      0s

Solved in 151 iterations and 0.03 seconds (0.03 work units)
Optimal objective  4.510813076e+01
